20190612 303 0 0 0
20180522 300 0 0 0
20170522 100 2000 0 0
20160504 50 10000 0 0
20150831 0 12000 0 0
20140916 500 0 0 0
20130918 500 0 0 0
20120822 500 0 0 0
20110921 500 0 0 0
20100617 150 0 0 0
20090626 100 0 0 0
20080520 150 0 0 0
20070528 10 1000 0 0
